42 29
59 19
10 72
63 24
38 105
30 28
93 63
55 108
53 10
69 25
78 25
23 30
74 3
5 56
11 61
2 198
21 18
2 35
8 13
16 136
56 64
4 126
38 154
29 124
15 186
10 113
8 175
2 23
39 98
66 32
49 12
14 17
53 57
34 77
13 76
8 125
43 6
54 15
32 96
7 110
46 69
90 44
49 121
1 43
79 2
92 25
27 148
28 179
53 37
57 67
